79	369
84	349
97	324
108	295
113	275
126	250
144	243
152	239
154	238
161	221
173	216
174	196
186	191
190	190
192	189
204	184
208	183
216	181
226	178
227	171
236	164
254	157
269	148
278	141
290	136
294	135
296	134
307	132
308	129
312	128
320	126
325	125
329	124
332	121
336	120
349	117
353	116
362	113
379	109
405	107
408	105
425	101
462	97
